0 74.53 4109.91 3047.99 2266.91 973.53 4190.1 3301.89 4757.74 
1 4069.7 2999.49 2213.59 900.61 4137.39 3238.52 4701.35 
2 1172.36 1972.94 3496.22 891.0 1814.9 1415.48 
3 816.66 2350.0 1172.13 994.7 1796.67 
4 1533.33 1923.89 1188.01 2497.22 
5 3416.82 2409.76 3935.38 
6 1233.33 650.85 
7 1586.48 
8 
